100
1000
210
208
206
200
199
198
198
197
195
195
194
193
190
186
186
186
182
181
181
180
178
175
175
173
173
172
170
169
168
168
167
166
165
164
164
163
159
159
156
152
149
149
148
145
143
143
143
142
141
141
141
140
139
139
138
136
135
135
132
131
130
128
126
126
125
125
123
123
123
122
120
120
115
115
114
111
108
108
108
103
100
99
98
98
96
96
92
91
90
87
86
85
85
84
83
82
80
76
75
74
